NAME : gr137.tsp
TYPE : TOUR
DIMENSION : 137
TOUR_LENGTH : 820.7600809835762
TOUR_SECTION
1
2
3
4
5
18
19
7
6
9
8
10
29
30
31
32
38
39
40
35
34
33
26
27
28
52
53
54
56
57
58
59
60
62
61
55
64
65
68
67
66
63
75
74
76
77
78
79
80
81
86
82
87
88
89
90
91
93
94
95
97
98
99
100
101
103
102
126
125
117
116
104
105
115
114
113
112
111
110
109
106
107
108
118
119
120
121
122
123
124
128
127
129
130
131
132
133
134
135
83
84
85
136
137
96
92
71
70
69
72
50
51
73
49
44
43
41
42
12
13
14
15
45
46
47
48
16
17
11
36
37
25
23
22
21
20
24
-1
